(set-info :Origin "This instance was generated by: BanditFuzz-- an RL fuzzer for SMT solvers" )
(set-info :Author "Joe Scott, Fed Mora, Vijay Ganesh" )
(set-info :Contact "Joe Scott, joseph.scott@uwaterloo.ca")
(set-logic QF_BV)
(declare-const bool_0 Bool)
(declare-const bool_1 Bool)
(declare-const bool_2 Bool)
(declare-const bool_3 Bool)
(declare-const bool_4 Bool)
(declare-const bv_0 (_ BitVec 32))
(declare-const bv_1 (_ BitVec 32))
(declare-const bv_2 (_ BitVec 32))
(declare-const bv_3 (_ BitVec 32))
(declare-const bv_4 (_ BitVec 32))
(assert (=> (bvsge (bvnand #xfc2622b2  bv_3) (bvnand #x4957085b  bv_4)) (bvsle (bvsmod #x88788616  #x1e11aaa9 ) (bvudiv bv_0 #xb3cce231 ))))
(assert (not (bvule (bvmul #x9445e626  bv_4) (bvadd #x4a6b380c  bv_2))))
(assert (xor (bvslt (bvsub #x1c523ad1  #x8bc6aca9 ) (bvnor #xe28483a3  bv_2)) (and (bvult #x44f93ced  #x7dcdf517 ) (bvsgt bv_4 #x2a40b6ef ))))
(assert (and (bvuge (bvand #xdcd6e5a5  #x349899c0 ) (bvshl bv_3 bv_3)) (bvsge (bvsub #xd03f10fe  #xdbf7d607 ) (bvmul #x3d989507  bv_1))))
(assert (not (xor (bvule bv_0 #xd4fdf411 ) (and false bool_2))))
(check-sat)
(exit)
